40	100	100	100
77	75	81
76	85	79
87	63	99
79	78	91
52	62	93
64	88	55
92	83	84
99	92	93
99	73	50
72	91	93
93	68	52
58	51	52
52	65	83
82	66	58
85	57	92
72	58	87
95	72	54
65	66	57
84	86	95
57	88	92
99	57	73
67	81	82
68	89	67
59	64	65
96	74	51
62	72	91
58	56	56
54	72	74
96	95	87
50	71	93
68	76	68
83	70	86
57	54	71
70	66	62
64	91	71
57	96	84
75	64	94
98	91	79
75	78	51
87	59	84
